0110010000010000101011110100010010010011011001111111111000000111011110000001110111100101011010011011100000101101011000011000011001011101001101011000001001110101010001111100111111111101110101101010110011100000000100110011010110011001110000010101001000000101010101100111000010010101100110011011001001010001111101111111000101100100000010000011011011110000101000100000000000000000001100101100001000000010000000100000000011111100100010001101110101011100000000110001010101111011100101100000001100010101101110111101011010010101101000111011000000110101000000000001110010101010111010000000000001011000001000110111011000000001100010000000101000001100